*SENSE:Minimize
NAME          MODEL
ROWS
 N  OBJ
 E  C0000000
 E  C0000001
 L  C0000002
 L  C0000003
 L  C0000004
 L  C0000005
 L  C0000006
 L  C0000007
COLUMNS
    MARK      'MARKER'                 'INTORG'
    X0000000  C0000000   1.000000000000e+00
    X0000000  C0000002   5.000000000000e+01
    X0000000  C0000005   1.000000000000e+02
    X0000000  OBJ        6.900000000000e+02
    MARK      'MARKER'                 'INTEND'
    MARK      'MARKER'                 'INTORG'
    X0000001  C0000000   1.000000000000e+00
    X0000001  C0000003   5.000000000000e+01
    X0000001  C0000006   1.000000000000e+02
    X0000001  OBJ        7.300000000000e+02
    MARK      'MARKER'                 'INTEND'
    MARK      'MARKER'                 'INTORG'
    X0000002  C0000000   1.000000000000e+00
    X0000002  C0000004   5.000000000000e+01
    X0000002  C0000007   1.000000000000e+02
    X0000002  OBJ        8.800000000000e+02
    MARK      'MARKER'                 'INTEND'
    MARK      'MARKER'                 'INTORG'
    X0000003  C0000001   1.000000000000e+00
    X0000003  C0000002   1.000000000000e+02
    X0000003  C0000005   2.000000000000e+02
    X0000003  OBJ        2.270000000000e+03
    MARK      'MARKER'                 'INTEND'
    MARK      'MARKER'                 'INTORG'
    X0000004  C0000001   1.000000000000e+00
    X0000004  C0000003   1.000000000000e+02
    X0000004  C0000006   2.000000000000e+02
    X0000004  OBJ        2.550000000000e+03
    MARK      'MARKER'                 'INTEND'
    MARK      'MARKER'                 'INTORG'
    X0000005  C0000001   1.000000000000e+00
    X0000005  C0000004   1.000000000000e+02
    X0000005  C0000007   2.000000000000e+02
    X0000005  OBJ        3.250000000000e+03
    MARK      'MARKER'                 'INTEND'
RHS
    RHS       C0000000   1.000000000000e+00
    RHS       C0000001   1.000000000000e+00
    RHS       C0000002   5.000000000000e+03
    RHS       C0000003   1.500000000000e+04
    RHS       C0000004   9.999990000000e+05
    RHS       C0000005   1.000000000000e+04
    RHS       C0000006   5.000000000000e+04
    RHS       C0000007   9.999990000000e+05
BOUNDS
 BV BND       X0000000
 BV BND       X0000001
 BV BND       X0000002
 BV BND       X0000003
 BV BND       X0000004
 BV BND       X0000005
ENDATA
